Systerm=NiHAB

ENCUT=600
EDIFF=1E-6
ISMEAR=0

SIGMA=0.02

KSPACING=0.2
KGAMMA=.TRUE.


NELM=120
NELMIN=5

IVDW=12


ALGO=F
PREC=Normal
LREAL=Auto

GGA=PE
NSW=0

LWAVE=.FALSE.
LCHARG=.FASLE.	

